56278
44, 38, 8, 32, 41, 35, 24, 50, 20, 7, 37, 5, 51, 40, 43, 13, 3, 28, 6, 55, 26, 49, 21, 29, 22, 10, 9, 14, 16, 46, 39, 36, 15, 52, 2, 45, 11, 25, 31, 27, 1, 33, 42, 18, 12, 4, 30, 47, 54, 34, 53, 23, 17, 48, 19
